p cnf 63 74
-1 13 23 -2 39 -54 -60 0 
-3 25 27 37 -4 40 -54 -60 0 
-5 10 35 38 -6 9 14 21 40 -54 -60 0 
-7 8 19 28 41 -54 -60 0 
-7 8 19 28 42 -54 -60 0 
-8 7 19 28 40 -54 -60 0 
-7 8 19 28 43 -54 -60 0 
-9 6 14 21 44 -54 -60 0 
-9 6 14 21 -10 5 35 38 45 -54 -60 0 
-8 7 19 28 39 -54 -60 0 
-3 25 27 37 43 -54 -60 0 
-3 25 27 37 46 -54 -60 0 
-3 25 27 37 47 -54 -60 0 
-11 12 18 41 -54 -60 0 
-5 10 35 38 48 -54 -60 0 
-3 25 27 37 40 -54 -60 0 
-3 25 27 37 49 -54 -60 0 
-11 12 18 39 -54 -60 0 
-5 10 35 38 42 -54 -60 0 
-8 7 19 28 47 -54 -60 0 
-12 11 18 47 -54 -60 0 
-13 1 23 39 -54 -60 0 
-12 11 18 40 -54 -60 0 
-5 10 35 38 -14 6 9 21 40 -54 -60 0 
-15 50 -54 -60 0 
-16 51 -54 -60 0 
-17 52 -54 -60 0 
-5 10 35 38 43 -54 -60 0 
-14 6 9 21 40 -54 -60 0 
-14 6 9 21 49 -54 -60 0 
-6 9 14 21 41 -54 -60 0 
-6 9 14 21 42 -54 -60 0 
-3 25 27 37 -18 11 12 40 -54 -60 0 
-14 6 9 21 46 -54 -60 0 
-14 6 9 21 48 -54 -60 0 
-19 7 8 28 53 0 
-20 54 -60 0 
-4 54 -60 0 
-5 10 35 38 55 -54 -60 0 
-11 12 18 -21 6 9 14 45 -54 -60 0 
-8 7 19 28 55 -54 -60 0 
-7 8 19 28 55 -54 -60 0 
-1 13 23 -8 7 19 28 56 -36 -54 -60 0 
-22 30 -8 7 19 28 57 -54 -60 0 
-5 10 35 38 -23 1 13 40 -54 -60 0 
-8 7 19 28 -11 12 18 56 -36 -54 -60 0 
-24 58 -54 -60 0 
-7 8 19 28 54 -60 0 
-3 25 27 37 -8 7 19 28 56 -36 -54 -60 0 
-8 7 19 28 54 -60 0 
-25 3 27 37 59 -54 -60 0 
-26 -7 8 19 28 45 -54 -60 0 
-8 7 19 28 -27 3 25 37 45 -54 -60 0 
-28 7 8 19 60 -54 0 
-8 7 19 28 61 -54 -60 0 
-8 7 19 28 -29 55 -54 -60 0 
-30 22 -31 -32 58 -54 -60 0 
-8 7 19 28 -33 55 -54 -60 0 
-34 -18 11 12 62 -54 -60 0 
-4 -34 62 -54 -60 0 
-8 7 19 28 -22 30 57 -54 -60 0 
-35 5 10 38 57 -54 -60 0 
-21 6 9 14 61 -54 -60 0 
-36 63 -54 -60 0 
-37 3 25 27 63 -54 -60 0 
-1 13 23 39 -54 -60 0 
-38 5 10 35 59 -54 -60 0 
-7 8 19 28 61 -54 -60 0 
-25 3 27 37 58 -54 -60 0 
-27 3 25 37 -9 6 14 21 45 -54 -60 0 
-21 6 9 14 45 -54 -60 0 
-1 13 23 -8 7 19 28 45 -54 -60 0 
-7 8 19 28 57 -54 -60 0 
-25 3 27 37 57 -54 -60 0 
